K-points
  72
Line-mode
rec
 0.5000 0.0000 0.0000  ! X
 0.5000 0.5000 0.5000  ! R

 0.5000 0.5000 0.5000  ! R
 0.0000 0.5000 0.0000  ! M
  
 0.0000 0.5000 0.0000  ! M
 0.0000 0.0000 0.0000  ! G

 0.0000 0.0000 0.0000  ! G
 0.5000 0.5000 0.5000  ! R
